letting n =  10
letting blocks =  [[1, 1], [1, 3], [1, 7], [1, 10], [2, 3], [2, 5], [2, 7], [3, 4], [3, 5], [3, 7], [3, 9], [4, 3], [4, 5], [4, 6], [4, 7], [5, 1], [6, 1], [6, 10], [7, 1], [7, 3], [7, 5], [7, 10], [8, 2], [9, 1], [9, 2], [9, 9], [9, 10], [10, 9]]
